experiments/sat_smt/run/sat-r/results/claire.res
solved=true
solvingTime=8.0020427703857421875
nActions=10