experiments/sat_smt/run/sat-r/results/claire.out
Timesteps: 1
s UNSATISFIABLE
real 0.10
user 0.01
sys 0.00
Timesteps: 2
s UNSATISFIABLE
real 0.12
user 0.02
sys 0.00
Timesteps: 3
s UNSATISFIABLE
real 0.18
user 0.05
sys 0.01
Timesteps: 4
s UNSATISFIABLE
real 0.23
user 0.15
sys 0.01
Timesteps: 5
s UNSATISFIABLE
real 0.43
user 0.35
sys 0.01
Timesteps: 6
s UNSATISFIABLE
real 0.70
user 0.59
sys 0.01
Timesteps: 7
s UNSATISFIABLE
real 1.02
user 0.90
sys 0.01
Timesteps: 8
s UNSATISFIABLE
real 1.15
user 1.02
sys 0.01
Timesteps: 9
s UNSATISFIABLE
real 2.18
user 1.97
sys 0.02
Timesteps: 10
s SATISFIABLE
real 1.68
user 1.49
sys 0.01
